1 0 
2 24 
3 22 
4 23 
5 5 
6 11 
7 23 
8 26 
9 9 
10 23 
11 9 
12 14 
13 16 
14 12 
15 2 
16 2 
17 6 
18 20 
19 26 
20 12 
21 15 
22 13 
23 26 
24 17 
25 7 
26 12 
27 4 
28 4 
29 20 
30 10 
31 9 
32 2 
33 9 
34 1 
35 2 
36 2 
37 12 
38 14 
39 23 
40 21 
41 13 
42 13 
43 23 
44 3 
45 6 
46 23 
47 11 
48 2 
49 7 
50 13 
51 10 
52 3 
53 6 
54 13 
55 2 
56 14 
57 7 
58 21 
59 7 
60 22 
61 13 
62 22 
63 18 
64 22 
65 6 
66 2 
67 11 
68 5 
69 9 
70 9 
71 5 
72 12 
73 2 
74 12 
75 19 
76 6 
77 14 
78 2 
79 2 
80 24 
